\ENCODING=ISO-8859-1
\Problem name: IloCplex

Minimize
 obj: 153 y(0) + 110 y(1) + 152 y(2) + 113 y(3) + 152 y(4) + 122 y(5)
      + 140 y(6) + 109 y(7) + 138 y(8) + 110 y(9) + 131 y(10) + 134 y(11)
      + 116 y(12) + 150 y(13) + 122 y(14) + 144 y(15) + 116 y(16) + 128 y(17)
      + 117 y(18) + 130 y(19) + 157 y(20) + 104 y(21) + 151 y(22) + 124 y(23)
      + 164 y(24) + 87 y(25) + 166 y(26) + 75 y(27) + 151 y(28) + 103 y(29)
Subject To
 c1:  y(0) + y(3) + y(5) + y(7) + y(9) + y(11) + y(13) + y(15) + y(17) + y(18)
      + y(20) + y(22) + y(24) + y(26) + y(28)  = 1
 c2:  y(0) + y(3) + y(5) + y(7) + y(9) + y(11) + y(13) + y(15) + y(17) + y(18)
      + y(20) + y(22) + y(24) + y(26) + y(28)  = 1
 c3:  y(0) + y(3) + y(5) + y(7) + y(9) + y(11) + y(13) + y(15) + y(17) + y(18)
      + y(20) + y(22) + y(24) + y(26) + y(28)  = 1
 c4:  y(0) + y(2) + y(4) + y(7) + y(9) + y(11) + y(13) + y(15) + y(17) + y(19)
      + y(20) + y(22) + y(24) + y(26) + y(28)  = 1
 c5:  y(0) + y(2) + y(4) + y(7) + y(9) + y(11) + y(13) + y(15) + y(17) + y(19)
      + y(20) + y(22) + y(24) + y(26) + y(28)  = 1
 c6:  y(0) + y(2) + y(4) + y(7) + y(9) + y(11) + y(13) + y(15) + y(17) + y(19)
      + y(20) + y(22) + y(24) + y(26) + y(28)  = 1
 c7:  y(0) + y(2) + y(5) + y(7) + y(9) + y(11) + y(13) + y(15) + y(17) + y(19)
      + y(20) + y(22) + y(24) + y(26) + y(28)  = 1
 c8:  y(0) + y(2) + y(5) + y(7) + y(9) + y(11) + y(13) + y(15) + y(17) + y(19)
      + y(20) + y(22) + y(24) + y(26) + y(28)  = 1
 c9:  y(0) + y(2) + y(5) + y(7) + y(9) + y(11) + y(13) + y(15) + y(17) + y(19)
      + y(20) + y(22) + y(24) + y(26) + y(28)  = 1
 c10: y(0) + y(2) + y(4) + y(6) + y(8) + y(10) + y(12) + y(14) + y(16) + y(18)
      + y(21) + y(23) + y(25) + y(27) + y(29)  = 1
 c11: y(0) + y(2) + y(4) + y(6) + y(8) + y(10) + y(12) + y(14) + y(16) + y(18)
      + y(21) + y(23) + y(25) + y(27) + y(29)  = 1
 c12: y(0) + y(2) + y(4) + y(6) + y(8) + y(10) + y(12) + y(14) + y(16) + y(18)
      + y(21) + y(23) + y(25) + y(27) + y(29)  = 1
 c13: y(0) + y(2) + y(4) + y(6) + y(8) + y(10) + y(12) + y(14) + y(17) + y(19)
      + y(21) + y(23) + y(25) + y(26) + y(28)  = 1
 c14: y(0) + y(2) + y(4) + y(6) + y(8) + y(10) + y(12) + y(14) + y(17) + y(19)
      + y(21) + y(23) + y(25) + y(26) + y(28)  = 1
 c15: y(0) + y(2) + y(4) + y(6) + y(8) + y(10) + y(12) + y(14) + y(17) + y(19)
      + y(21) + y(23) + y(25) + y(26) + y(28)  = 1
 c16: y(1) + y(3) + y(5) + y(7) + y(9) + y(11) + y(12) + y(14) + y(16) + y(18)
      + y(20) + y(22) + y(24) + y(27) + y(29)  = 1
 c17: y(1) + y(3) + y(5) + y(7) + y(9) + y(11) + y(12) + y(14) + y(16) + y(18)
      + y(20) + y(22) + y(24) + y(27) + y(29)  = 1
 c18: y(1) + y(3) + y(5) + y(7) + y(9) + y(11) + y(12) + y(14) + y(16) + y(18)
      + y(20) + y(22) + y(24) + y(27) + y(29)  = 1
 c19: y(1) + y(3) + y(5) + y(7) + y(9) + y(11) + y(13) + y(14) + y(16) + y(18)
      + y(20) + y(22) + y(24) + y(26) + y(29)  = 1
 c20: y(1) + y(3) + y(5) + y(7) + y(9) + y(11) + y(13) + y(14) + y(16) + y(18)
      + y(20) + y(22) + y(24) + y(26) + y(29)  = 1
 c21: y(1) + y(3) + y(5) + y(7) + y(9) + y(11) + y(13) + y(14) + y(16) + y(18)
      + y(20) + y(22) + y(24) + y(26) + y(29)  = 1
 c22: y(1) + y(3) + y(5) + y(7) + y(9) + y(11) + y(13) + y(15) + y(16) + y(18)
      + y(20) + y(22) + y(24) + y(26) + y(28)  = 1
 c23: y(1) + y(3) + y(5) + y(7) + y(9) + y(11) + y(13) + y(15) + y(16) + y(18)
      + y(20) + y(22) + y(24) + y(26) + y(28)  = 1
 c24: y(1) + y(3) + y(5) + y(7) + y(9) + y(11) + y(13) + y(15) + y(16) + y(18)
      + y(20) + y(22) + y(24) + y(26) + y(28)  = 1
 c25: y(0) + y(2) + y(4) + y(6) + y(8) + y(11) + y(13) + y(15) + y(17) + y(19)
      + y(21) + y(22) + y(24) + y(26) + y(28)  = 1
 c26: y(0) + y(2) + y(4) + y(6) + y(8) + y(11) + y(13) + y(15) + y(17) + y(19)
      + y(21) + y(22) + y(24) + y(26) + y(28)  = 1
 c27: y(0) + y(2) + y(4) + y(6) + y(8) + y(11) + y(13) + y(15) + y(17) + y(19)
      + y(21) + y(22) + y(24) + y(26) + y(28)  = 1
 c28: y(0) + y(2) + y(4) + y(6) + y(8) + y(10) + y(13) + y(15) + y(17) + y(19)
      + y(21) + y(23) + y(24) + y(26) + y(28)  = 1
 c29: y(0) + y(2) + y(4) + y(6) + y(8) + y(10) + y(13) + y(15) + y(17) + y(19)
      + y(21) + y(23) + y(24) + y(26) + y(28)  = 1
 c30: y(0) + y(2) + y(4) + y(6) + y(8) + y(10) + y(13) + y(15) + y(17) + y(19)
      + y(21) + y(23) + y(24) + y(26) + y(28)  = 1
 c31: y(0) + y(2) + y(4) + y(6) + y(9) + y(11) + y(13) + y(15) + y(17) + y(19)
      + y(20) + y(22) + y(24) + y(26) + y(28)  = 1
 c32: y(0) + y(2) + y(4) + y(6) + y(9) + y(11) + y(13) + y(15) + y(17) + y(19)
      + y(20) + y(22) + y(24) + y(26) + y(28)  = 1
 c33: y(0) + y(2) + y(4) + y(6) + y(9) + y(11) + y(13) + y(15) + y(17) + y(19)
      + y(20) + y(22) + y(24) + y(26) + y(28)  = 1
 c34: y(0) + y(2) + y(4) + y(6) + y(8) + y(10) + y(12) + y(14) + y(16) + y(19)
      + y(21) + y(23) + y(25) + y(27) + y(28)  = 1
 c35: y(0) + y(2) + y(4) + y(6) + y(8) + y(10) + y(12) + y(14) + y(16) + y(19)
      + y(21) + y(23) + y(25) + y(27) + y(28)  = 1
 c36: y(0) + y(2) + y(4) + y(6) + y(8) + y(10) + y(12) + y(14) + y(16) + y(19)
      + y(21) + y(23) + y(25) + y(27) + y(28)  = 1
 c37: y(1) + y(3) + y(4) + y(6) + y(8) + y(10) + y(12) + y(14) + y(16) + y(18)
      + y(20) + y(23) + y(25) + y(27) + y(29)  = 1
 c38: y(1) + y(3) + y(4) + y(6) + y(8) + y(10) + y(12) + y(14) + y(16) + y(18)
      + y(20) + y(23) + y(25) + y(27) + y(29)  = 1
 c39: y(1) + y(3) + y(4) + y(6) + y(8) + y(10) + y(12) + y(14) + y(16) + y(18)
      + y(20) + y(23) + y(25) + y(27) + y(29)  = 1
 c40: y(1) + y(3) + y(5) + y(6) + y(8) + y(10) + y(12) + y(14) + y(16) + y(18)
      + y(20) + y(22) + y(25) + y(27) + y(29)  = 1
 c41: y(1) + y(3) + y(5) + y(6) + y(8) + y(10) + y(12) + y(14) + y(16) + y(18)
      + y(20) + y(22) + y(25) + y(27) + y(29)  = 1
 c42: y(1) + y(3) + y(5) + y(6) + y(8) + y(10) + y(12) + y(14) + y(16) + y(18)
      + y(20) + y(22) + y(25) + y(27) + y(29)  = 1
 c43: y(0) + y(2) + y(4) + y(6) + y(8) + y(10) + y(12) + y(15) + y(17) + y(19)
      + y(21) + y(23) + y(24) + y(26) + y(28)  = 1
 c44: y(0) + y(2) + y(4) + y(6) + y(8) + y(10) + y(12) + y(15) + y(17) + y(19)
      + y(21) + y(23) + y(24) + y(26) + y(28)  = 1
 c45: y(0) + y(2) + y(4) + y(6) + y(8) + y(10) + y(12) + y(15) + y(17) + y(19)
      + y(21) + y(23) + y(24) + y(26) + y(28)  = 1
 c46: y(0) + y(1) + y(2) + y(3) + y(4) + y(5) + y(6) + y(7) + y(8) + y(9)
      + y(10) + y(11) + y(12) + y(13) + y(14) + y(15) + y(16) + y(17) + y(18)
      + y(19) + y(20) + y(21) + y(22) + y(23) + y(24) + y(25) + y(26) + y(27)
      + y(28) + y(29) >= 1
 c47: y(0) + y(1) + y(2) + y(3) + y(4) + y(5) + y(6) + y(7) + y(8) + y(9)
      + y(10) + y(11) + y(12) + y(13) + y(14) + y(15) + y(16) + y(17) + y(18)
      + y(19) + y(20) + y(21) + y(22) + y(23) + y(24) + y(25) + y(26) + y(27)
      + y(28) + y(29) <= 5
Bounds
 0 <= y(0) <= 1
 0 <= y(1) <= 1
 0 <= y(2) <= 1
 0 <= y(3) <= 1
 0 <= y(4) <= 1
 0 <= y(5) <= 1
 0 <= y(6) <= 1
 0 <= y(7) <= 1
 0 <= y(8) <= 1
 0 <= y(9) <= 1
 0 <= y(10) <= 1
 0 <= y(11) <= 1
 0 <= y(12) <= 1
 0 <= y(13) <= 1
 0 <= y(14) <= 1
 0 <= y(15) <= 1
 0 <= y(16) <= 1
 0 <= y(17) <= 1
 0 <= y(18) <= 1
 0 <= y(19) <= 1
 0 <= y(20) <= 1
 0 <= y(21) <= 1
 0 <= y(22) <= 1
 0 <= y(23) <= 1
 0 <= y(24) <= 1
 0 <= y(25) <= 1
 0 <= y(26) <= 1
 0 <= y(27) <= 1
 0 <= y(28) <= 1
 0 <= y(29) <= 1
Binaries
 y(0)  y(1)  y(2)  y(3)  y(4)  y(5)  y(6)  y(7)  y(8)  y(9)  y(10)  y(11) 
 y(12)  y(13)  y(14)  y(15)  y(16)  y(17)  y(18)  y(19)  y(20)  y(21)  y(22) 
 y(23)  y(24)  y(25)  y(26)  y(27)  y(28)  y(29) 
End
